JulietBench/Juliet_Based_Patch_Bench/linux/CWE-189-Numeric-Errors/CVE_2010_4529_fdac1e0697356ac212259f2147aa60c72e334861/solverirda_getsockopt_Snippet_patch2.smt2
; benchmark generated from python API
(set-info :status unknown)
(declare-fun R () (_ BitVec 32))
(assert
 (let (($x15 (and (distinct (_ bv2 32) R) true)))
 (let (($x17 (= (_ bv2 32) R)))
 (let (($x24 (or $x17 $x15)))
 (not $x24)))))
(check-sat)
